p td 30 45
13 22
13 11
13 28
22 15
22 25
4 27
4 19
4 11
27 21
27 18
20 29
20 26
20 12
29 1
29 24
10 21
10 0
10 9
21 26
7 16
7 3
7 2
16 17
16 15
0 3
0 1
1 5
3 8
2 5
2 9
5 17
17 8
26 12
12 24
19 28
19 6
9 23
14 18
14 28
14 15
18 8
24 23
6 25
6 11
25 23
